p cnf 25 60
a 14 7 0
e 1 2 3 4 5 6 8 9 10 11 12 13 15 16 17 18 19 20 21 22 23 24 25 0
4 2 0
4 3 0
-2 -3 -4 0
-5 1 0
-5 -4 0
-1 4 5 0
1 -6 -7 0
-1 6 -7 0
1 6 7 0
-1 -6 7 0
-5 7 -8 0
5 -7 -8 0
-5 -7 8 0
5 7 8 0
10 6 0
10 -1 0
-6 1 -10 0
11 -9 0
11 10 0
9 -10 -11 0
12 8 0
12 11 0
-8 -11 -12 0
-14 13 0
-14 13 0
-13 14 0
15 1 0
15 14 0
-1 -14 -15 0
16 -1 0
16 6 0
1 -6 -16 0
-19 17 0
-19 18 0
-17 -18 19 0
20 18 0
20 -4 0
-18 4 -20 0
-21 1 0
-21 -20 0
-1 20 21 0
19 -21 -22 0
-19 21 -22 0
19 21 22 0
-19 -21 22 0
23 16 0
23 22 0
-16 -22 -23 0
24 15 0
24 -23 0
-15 23 -24 0
25 12 0
25 24 0
-12 -24 -25 0
12 17 -6 -18 11 0
19 -6 17 -5 0
-10 11 -2 25 -20 0
14 2 10 21 0
-11 -2 -15 22 -21 -24 0
25 0
